
List of user-set options:

                                    Name   Value                used
                        file_print_level = 5                     yes
                   hessian_approximation = limited-memory        yes
                                  hsllib = /home/ggs24/packages/ThirdParty-HSL/.libs/libcoinhsl.so  yes
                           linear_solver = ma97                  yes
                                max_iter = 100                   yes
                             output_file = IPOPT.out             yes
                             print_level = 0                     yes
                      print_user_options = yes                   yes
                                      sb = yes                   yes
This is Ipopt version 3.14.7, running with linear solver ma97.

Number of nonzeros in equality constraint Jacobian...:        0
Number of nonzeros in inequality constraint Jacobian.:        6
Number of nonzeros in Lagrangian Hessian.............:        0

Total number of variables............................:        6
                     variables with only lower bounds:        0
                variables with lower and upper bounds:        6
                     variables with only upper bounds:        0
Total number of equality constraints.................:        0
Total number of inequality constraints...............:        1
        inequality constraints with only lower bounds:        0
   inequality constraints with lower and upper bounds:        0
        inequality constraints with only upper bounds:        0

iter    objective    inf_pr   inf_du lg(mu)  ||d||  lg(rg) alpha_du alpha_pr  ls
   0  1.8141894e+00 0.00e+00 3.52e+00   0.0 0.00e+00    -  0.00e+00 0.00e+00   0
   1  1.5482327e-04 0.00e+00 1.07e+00  -0.0 1.95e+00    -  6.86e-01 5.00e-01f  2
   2  1.5408207e-04 0.00e+00 1.17e-02  -5.9 2.88e-04    -  9.90e-01 1.00e+00f  1
   3  7.9428208e-05 0.00e+00 6.70e-04  -7.9 4.43e-02    -  9.64e-01 1.00e+00f  1
   4  5.3961519e-05 0.00e+00 2.44e-04  -5.3 3.59e-02    -  1.00e+00 1.00e+00f  1
   5  4.6659653e-05 0.00e+00 6.34e-05  -7.5 2.75e-02    -  1.00e+00 1.00e+00f  1
   6  4.4856423e-05 0.00e+00 7.16e-05  -9.4 1.33e-02    -  1.00e+00 1.00e+00f  1
   7  3.9345359e-05 0.00e+00 1.08e-04 -11.0 4.66e-02    -  1.00e+00 1.00e+00f  1
   8  3.4148456e-05 0.00e+00 9.30e-05 -11.0 2.04e-01    -  1.00e+00 2.50e-01f  3
   9  2.8882437e-05 0.00e+00 1.29e-04 -11.0 4.89e-01    -  1.00e+00 5.00e-01f  2
iter    objective    inf_pr   inf_du lg(mu)  ||d||  lg(rg) alpha_du alpha_pr  ls
  10  1.6933352e-05 0.00e+00 3.28e-05 -11.0 1.03e-01    -  1.00e+00 1.00e+00f  1
  11  1.5432317e-05 0.00e+00 3.25e-05 -11.0 1.42e-01    -  1.00e+00 2.50e-01f  3
  12  1.0952194e-05 0.00e+00 2.34e-05 -11.0 3.04e-01    -  1.00e+00 5.00e-01f  2
  13  1.0924022e-05 0.00e+00 2.30e-05 -11.0 3.70e-01    -  1.00e+00 1.95e-03f 10
  14  1.0445448e-05 0.00e+00 2.09e-05 -11.0 3.20e-01    -  1.00e+00 6.25e-02f  5
  15  1.0409877e-05 0.00e+00 2.09e-05 -11.0 4.22e-01    -  1.00e+00 3.91e-03f  9
  16  1.0393894e-05 0.00e+00 2.08e-05 -11.0 8.10e-01    -  1.00e+00 9.77e-04f 11
  17  1.0384126e-05 0.00e+00 2.08e-05 -11.0 9.19e-01    -  1.00e+00 4.88e-04f 12
  18  1.0372194e-05 0.00e+00 2.08e-05 -11.0 6.54e-01    -  1.00e+00 9.77e-04f 11
  19  1.0339674e-05 0.00e+00 2.06e-05 -11.0 1.05e+00    -  1.00e+00 1.86e-03f 10
iter    objective    inf_pr   inf_du lg(mu)  ||d||  lg(rg) alpha_du alpha_pr  ls
  20  1.0331928e-05 0.00e+00 2.06e-05  -8.9 5.48e+02    -  6.62e-02 9.27e-07f 12
  21  1.0330034e-05 0.00e+00 2.03e-05  -8.9 2.09e+02    -  1.00e+00 6.59e-07f 14
  22  1.0329796e-05 0.00e+00 1.73e-05  -7.7 4.55e+01    -  1.00e+00 3.81e-07f 17
  23  1.0329794e-05 0.00e+00 1.73e-05  -7.9 1.88e+00    -  1.00e+00 9.12e-08f 24
  24  1.0282438e-05 0.00e+00 1.68e-05  -6.0 6.57e+01    -  1.00e+00 2.31e-04f  8
  25  1.0281400e-05 0.00e+00 1.67e-05  -6.2 1.85e+00    -  9.93e-01 4.15e-05f 15
  26  1.0280577e-05 0.00e+00 1.67e-05  -6.7 2.98e+00    -  1.00e+00 3.96e-05f 15
  27  1.0280541e-05 0.00e+00 1.67e-05  -6.8 2.03e+00    -  9.98e-01 1.61e-06f 20
  28  1.0280533e-05 0.00e+00 1.67e-05  -5.9 1.66e+00    -  1.00e+00 4.77e-07f 22
  29  1.0280528e-05 0.00e+00 1.67e-05  -5.9 1.48e+00    -  1.00e+00 4.77e-07f 22
iter    objective    inf_pr   inf_du lg(mu)  ||d||  lg(rg) alpha_du alpha_pr  ls
  30  1.0280527e-05 0.00e+00 1.66e-05  -5.9 2.70e+00    -  1.00e+00 5.52e-08f 24
  31  1.0280526e-05 0.00e+00 1.67e-05  -5.9 1.52e+00    -  1.00e+00 2.98e-08f 26
  32  1.0280526e-05 0.00e+00 1.67e-05  -5.9 1.44e+00    -  1.00e+00 3.73e-09f 29
  33  1.0280526e-05 0.00e+00 1.95e-05  -5.9 1.95e-05    -  1.00e+00 1.49e-08f 27
  34  1.0280526e-05 0.00e+00 1.95e-05  -5.9 3.05e-06    -  1.00e+00 2.38e-07f 23
  35  1.0280526e-05 0.00e+00 1.95e-05  -5.9 1.52e-05    -  1.00e+00 1.86e-09f 30
  36  1.0280526e-05 0.00e+00 1.95e-05  -5.9 8.50e-05    -  1.00e+00 1.16e-10f 34
  37  1.0280526e-05 0.00e+00 1.95e-05  -5.9 8.50e-05    -  1.00e+00 2.91e-11f 36
  38  1.9496109e-05 0.00e+00 9.07e-05  -5.9 8.50e-05    -  1.00e+00 1.00e+00w  1
  39  1.9485625e-05 0.00e+00 9.05e-05  -5.9 9.07e-05    -  1.00e+00 1.00e+00w  1
iter    objective    inf_pr   inf_du lg(mu)  ||d||  lg(rg) alpha_du alpha_pr  ls
  40  3.4699047e-05 0.00e+00 1.90e-04  -5.9 3.96e-02    -  1.00e+00 1.00e+00w  1
  41  1.9496109e-05 0.00e+00 9.07e-05  -5.9 7.99e-02    -  1.00e+00 1.00e+00S 21
  42  1.8543308e-05 0.00e+00 7.04e-05  -5.9 3.97e-02    -  1.00e+00 2.50e-01f  3
  43  1.8537320e-05 0.00e+00 7.03e-05  -5.9 7.04e-05    -  1.00e+00 1.00e+00f  1
  44  1.8376540e-05 0.00e+00 6.62e-05  -5.9 3.40e-02    -  1.00e+00 6.25e-02f  5
  45  1.6754524e-05 0.00e+00 2.75e-05  -5.9 4.36e-02    -  1.00e+00 1.00e+00f  1
  46  1.6704684e-05 0.00e+00 2.76e-05  -5.9 3.15e-02    -  1.00e+00 3.12e-02f  6
  47  1.6676112e-05 0.00e+00 2.75e-05  -5.9 8.69e-02    -  1.00e+00 7.81e-03f  8
  48  1.5990413e-05 0.00e+00 2.78e-05  -5.9 3.06e-01    -  1.00e+00 6.25e-02f  5
  49  1.5794737e-05 0.00e+00 2.69e-05  -5.9 3.59e-01    -  1.00e+00 1.56e-02f  7
iter    objective    inf_pr   inf_du lg(mu)  ||d||  lg(rg) alpha_du alpha_pr  ls
  50  1.5608666e-05 0.00e+00 2.65e-05  -5.9 3.44e-01    -  1.00e+00 1.56e-02f  7
  51  1.5419879e-05 0.00e+00 2.60e-05  -5.9 3.48e-01    -  1.00e+00 1.56e-02f  7
  52  1.5321187e-05 0.00e+00 2.56e-05  -5.9 3.58e-01    -  1.00e+00 7.81e-03f  8
  53  1.5317529e-05 0.00e+00 2.45e-05  -5.9 1.42e+00    -  1.00e+00 1.22e-04f 14
  54  1.5315892e-05 0.00e+00 2.45e-05  -5.9 8.75e-01    -  1.00e+00 6.10e-05f 15
  55  1.5274512e-05 0.00e+00 2.42e-05  -5.9 5.90e-01    -  1.00e+00 1.95e-03f 10
  56  1.8838615e+00 0.00e+00 5.69e-01  -5.9 6.97e-01    -  1.00e+00 1.00e+00w  1
  57  6.9593438e-05 0.00e+00 5.55e-04  -5.9 7.16e-01    -  1.00e+00 1.00e+00w  1
  58  1.7493730e+00 0.00e+00 5.69e-01  -5.9 4.49e-01    -  1.00e+00 1.00e+00w  1
  59  1.5243027e-05 0.00e+00 2.48e-05  -5.9 6.10e+01    -  1.00e+00 1.95e-03f  9
iter    objective    inf_pr   inf_du lg(mu)  ||d||  lg(rg) alpha_du alpha_pr  ls
  60  1.5242922e-05 0.00e+00 2.63e-05  -5.9 2.98e-02    -  1.00e+00 1.22e-04f 14
  61  1.5242920e-05 0.00e+00 2.64e-05  -5.9 2.64e-05    -  1.00e+00 1.95e-03f 10
  62  1.5242915e-05 0.00e+00 2.64e-05  -5.9 1.06e-03    -  1.00e+00 1.22e-04f 14
  63  1.5242914e-05 0.00e+00 2.64e-05  -5.9 4.91e-03    -  1.00e+00 3.81e-06f 19
  64  1.5242908e-05 0.00e+00 2.63e-05  -5.9 2.62e-02    -  1.00e+00 7.63e-06f 18
  65  1.5242907e-05 0.00e+00 2.63e-05  -5.9 7.10e-02    -  1.00e+00 4.77e-07f 22
  66  1.5228182e-05 0.00e+00 2.54e-05  -5.9 4.55e-01    -  1.00e+00 9.77e-04f 11
  67  1.5223634e-05 0.00e+00 2.55e-05  -5.9 2.70e-01    -  1.00e+00 4.88e-04f 12
  68  1.5222938e-05 0.00e+00 2.54e-05  -5.9 3.29e-01    -  1.00e+00 6.10e-05f 15
  69  1.8174157e+00 0.00e+00 5.71e-01  -5.9 4.10e-01    -  1.00e+00 1.00e+00w  1
iter    objective    inf_pr   inf_du lg(mu)  ||d||  lg(rg) alpha_du alpha_pr  ls
  70  5.9588125e-05 0.00e+00 4.34e-04  -5.9 3.73e-01    -  1.00e+00 1.00e+00w  1
  71  1.7717566e+00 0.00e+00 5.68e-01  -5.9 5.44e-01    -  1.00e+00 1.00e+00w  1
  72  1.5219463e-05 0.00e+00 2.52e-05  -5.9 1.42e+01    -  1.00e+00 2.44e-04f 12
  73  1.5218271e-05 0.00e+00 2.61e-05  -5.9 4.45e-02    -  1.00e+00 9.77e-04f 11
  74  1.5218228e-05 0.00e+00 2.61e-05  -5.9 2.61e-05    -  1.00e+00 3.12e-02f  6
  75  1.5218202e-05 0.00e+00 2.61e-05  -5.9 2.89e-03    -  1.00e+00 2.44e-04f 13
  76  1.5218148e-05 0.00e+00 2.61e-05  -5.9 1.36e-02    -  1.00e+00 1.22e-04f 14
  77  1.5214935e-05 0.00e+00 2.60e-05  -5.9 5.24e-02    -  1.00e+00 1.95e-03f 10
  78  1.5213741e-05 0.00e+00 2.58e-05  -5.9 1.42e-01    -  1.00e+00 2.44e-04f 13
  79  1.5211313e-05 0.00e+00 2.55e-05  -5.9 2.87e-01    -  1.00e+00 2.44e-04f 13
iter    objective    inf_pr   inf_du lg(mu)  ||d||  lg(rg) alpha_du alpha_pr  ls
  80  1.5205668e-05 0.00e+00 2.53e-05  -5.9 3.34e-01    -  1.00e+00 4.88e-04f 12
  81  1.5205459e-05 0.00e+00 2.52e-05  -5.9 3.77e-01    -  1.00e+00 1.53e-05f 17
  82  1.9078605e+00 0.00e+00 5.52e-01  -5.9 2.96e+00    -  1.00e+00 3.20e-01w  1
  83  1.7625094e+00 0.00e+00 5.70e-01  -5.9 8.95e-01    -  4.40e-03 1.00e+00w  1
  84  1.6594544e+00 0.00e+00 5.60e-01  -5.9 2.68e+01    -  6.24e-02 1.21e-02w  1
  85  1.5204958e-05 0.00e+00 2.39e-05  -5.9 3.73e+01    -  1.00e+00 4.88e-06f 16
  86  1.5204865e-05 0.00e+00 2.60e-05  -5.9 6.25e-03    -  1.00e+00 4.88e-04f 12
  87  1.5204675e-05 0.00e+00 2.59e-05  -5.9 4.43e-02    -  1.00e+00 1.22e-04f 14
  88  1.5203940e-05 0.00e+00 2.59e-05  -5.9 4.45e-02    -  1.00e+00 4.88e-04f 12
  89  1.5203874e-05 0.00e+00 2.57e-05  -5.9 3.75e-01    -  1.00e+00 7.63e-06f 18
iter    objective    inf_pr   inf_du lg(mu)  ||d||  lg(rg) alpha_du alpha_pr  ls
  90  1.5203358e-05 0.00e+00 2.59e-05  -5.9 6.69e-02    -  1.00e+00 2.44e-04f 13
  91  1.5200119e-05 0.00e+00 2.57e-05  -5.9 2.96e-01    -  1.00e+00 4.88e-04f 12
  92  1.5199137e-05 0.00e+00 2.45e-05  -5.9 8.40e+00    -  3.29e-01 8.79e-06f 16
  93  1.5198875e-05 0.00e+00 2.39e-05  -5.9 7.25e+00    -  1.00e+00 2.71e-06f 18
  94  1.5198707e-05 0.00e+00 2.39e-05  -5.9 3.57e+00    -  1.00e+00 3.31e-06f 19
  95  2.9588015e-05 0.00e+00 1.44e-04  -5.9 2.60e-05    -  1.00e+00 1.00e+00w  1
  96  2.9583812e-05 0.00e+00 1.44e-04  -5.9 6.25e-05    -  1.00e+00 1.00e+00w  1
  97  5.2376163e-01 0.00e+00 5.71e-01  -5.9 2.13e-02    -  1.00e+00 1.00e+00w  1
  98  1.5198685e-05 0.00e+00 2.60e-05  -5.9 1.33e-02    -  1.00e+00 1.56e-02f  6
  99  1.5198684e-05 0.00e+00 2.59e-05  -5.9 4.19e-03    -  1.00e+00 7.63e-06f 18
iter    objective    inf_pr   inf_du lg(mu)  ||d||  lg(rg) alpha_du alpha_pr  ls
 100  1.5198667e-05 0.00e+00 2.59e-05  -5.9 1.54e-02    -  1.00e+00 3.05e-05f 16

Number of Iterations....: 100

                                   (scaled)                 (unscaled)
Objective...............:   1.5198667417996543e-05    1.5198667417996543e-05
Dual infeasibility......:   2.5930126855711351e-05    2.5930126855711351e-05
Constraint violation....:   0.0000000000000000e+00    0.0000000000000000e+00
Variable bound violation:   0.0000000000000000e+00    0.0000000000000000e+00
Complementarity.........:   1.3887921950554573e-06    1.3887921950554573e-06
Overall NLP error.......:   2.5930126855711351e-05    2.5930126855711351e-05


Number of objective function evaluations             = 1363
Number of objective gradient evaluations             = 101
Number of equality constraint evaluations            = 0
Number of inequality constraint evaluations          = 1363
Number of equality constraint Jacobian evaluations   = 0
Number of inequality constraint Jacobian evaluations = 101
Number of Lagrangian Hessian evaluations             = 0
Total seconds in IPOPT                               = 1.150

EXIT: Maximum Number of Iterations Exceeded.
